1707.97
0 5 17 14 13 40 4 12 3 9 11 7 52 0
0 91 16 46 19 20 35 29 24 25 23 22 21 26 28 18 27 0
0 36 32 30 33 34 80 39 41 44 38 43 42 87 37 0
0 54 55 56 57 60 45 64 49 47 48 88 51 50 53 0
0 65 66 63 62 61 59 58 67 68 69 0
0 72 74 75 73 84 83 82 70 71 81 78 79 77 76 0
0 2 15 86 85 93 92 95 94 89 0
0 1 90 10 31 8 100 97 98 99 96 6 0
